p edge 34 160
v 1 759
v 2 5
v 3 240
v 4 789
v 5 50
v 6 166
v 7 5
v 8 789
v 9 85
v 10 724
v 11 605
v 12 77
v 13 240
v 14 685
v 15 476
v 16 476
v 17 230
v 18 50
v 19 870
v 20 124
v 21 870
v 22 25
v 23 178
v 24 50
v 25 65
v 26 235
v 27 25
v 28 700
v 29 10
v 30 166
v 31 77
v 32 50
v 33 178
v 34 10
e 1 2
e 1 3
e 1 4
e 1 5
e 1 6
e 1 7
e 1 13
e 1 19
e 1 24
e 1 30
e 2 3
e 2 4
e 2 5
e 2 6
e 2 8
e 2 14
e 2 20
e 2 25
e 2 31
e 3 4
e 3 5
e 3 6
e 3 9
e 3 15
e 3 26
e 3 32
e 4 5
e 4 6
e 4 10
e 4 16
e 4 21
e 4 27
e 4 33
e 5 6
e 5 11
e 5 17
e 5 22
e 5 28
e 5 34
e 6 12
e 6 18
e 6 23
e 6 29
e 7 8
e 7 9
e 7 10
e 7 11
e 7 12
e 7 13
e 7 19
e 7 24
e 7 30
e 8 9
e 8 10
e 8 11
e 8 12
e 8 14
e 8 20
e 8 25
e 8 31
e 9 10
e 9 11
e 9 12
e 9 15
e 9 26
e 9 32
e 10 11
e 10 12
e 10 16
e 10 21
e 10 27
e 10 33
e 11 12
e 11 17
e 11 22
e 11 28
e 11 34
e 12 18
e 12 23
e 12 29
e 13 14
e 13 15
e 13 16
e 13 17
e 13 18
e 13 19
e 13 24
e 13 30
e 14 15
e 14 16
e 14 17
e 14 18
e 14 20
e 14 25
e 14 31
e 15 16
e 15 17
e 15 18
e 15 26
e 15 32
e 16 17
e 16 18
e 16 21
e 16 27
e 16 33
e 17 18
e 17 22
e 17 28
e 17 34
e 18 23
e 18 29
e 19 20
e 19 21
e 19 22
e 19 23
e 19 24
e 19 30
e 20 21
e 20 22
e 20 23
e 20 25
e 20 31
e 21 22
e 21 23
e 21 27
e 21 33
e 22 23
e 22 28
e 22 34
e 23 29
e 24 25
e 24 26
e 24 27
e 24 28
e 24 29
e 24 30
e 25 26
e 25 27
e 25 28
e 25 29
e 25 31
e 26 27
e 26 28
e 26 29
e 26 32
e 27 28
e 27 29
e 27 33
e 28 29
e 28 34
e 30 31
e 30 32
e 30 33
e 30 34
e 31 32
e 31 33
e 31 34
e 32 33
e 32 34
e 33 34
